3 15
162 109 175 
0 37 3 14 21 98 40 57 71 19 59 94 95 1
1 46 87 54 30 71 64 19 8 58 37 7 52 1
2 99 45 8 16 8 86 55 44 66 13 32 24 2
3 51 98 36 53 12 99 56 98 81 73 16 64 2
4 33 99 1 50 70 100 77 18 62 9 49 77 2
5 80 5 89 51 97 6 44 55 91 5 24 91 2
6 25 84 73 11 30 37 46 12 63 88 33 87 3
7 99 99 31 37 72 76 71 80 68 85 78 100 2
8 54 40 14 7 67 73 82 34 67 50 71 44 1
9 26 77 86 24 55 78 26 49 18 44 1 41 1
10 54 11 39 49 31 96 75 25 50 45 87 3 1
11 26 6 91 17 63 27 10 86 68 60 85 6 1
12 82 71 43 22 3 64 7 83 30 26 14 66 1
13 21 27 62 74 2 12 78 52 94 7 31 7 3
14 66 60 39 86 11 21 3 36 77 96 73 59 2
